instances/p2/p2_6_13-2.dzn
Alphabet = {A,C,G,T};
ns = 6;
nc = 13;
neighbours = [| I(T),I(T),I(G),I(T),I(T),I(A),I(G),I(T),I(C),I(T),I(A),Null,Null | I(A),I(A),I(G),I(T),I(G),I(A),I(C),I(G),I(C),I(A),I(A),I(T),I(C) | I(G),I(A),I(T),I(A),I(T),I(C),I(A),I(T),I(C),I(T),I(G),Null,Null | I(C),I(C),Null,Null,Null,Null,Null,Null,Null,Null,Null,Null,Null | I(G),I(C),I(A),I(A),I(T),I(A),Null,Null,Null,Null,Null,Null,Null | I(C),I(C),I(A),I(G),Null,Null,Null,Null,Null,Null,Null,Null,Null |];
