instances/p2/p2_6_13-2.txt
{
	"num_strings": 6,
	"alphabet": "ACGT",
	"strings": [
		"TTGTTAGTCTA",
		"AAGTGACGCAATC",
		"GATATCATCTG",
		"CC",
		"GCAATA",
		"CCAG"
	],
	"str_length":[11,13,11,2,6,4]
}